(set-logic HORN)
(set-info :source |
    Benchmark: C_VC
    Output by Princess (http://www.philipp.ruemmer.org/princess.shtml)
|)
(set-info :status sat)
;===============================================================================
; Encoding of Heap sorts and operations
;-------------------------------------------------------------------------------
(define-sort Addr() Int)
(declare-datatypes ((AddrRange 0))
                   (((AddrRange (AddrRangeStart Addr) (AddrRangeSize Int)))))

(declare-datatypes ((HeapObject 0) (packet 0) (packet_list_node 0))
                   (((O_Int (getInt Int)) (O_UInt (getUInt Int)) (O_Addr (getAddr Addr)) (O_AddrRange (getAddrRange AddrRange)) (O_packet (getpacket packet)) (O_packet_list_node (getpacket_list_node packet_list_node)) (defObj))
                   ((packet (|packet::size| Int) (|packet::prio| Int) (|packet::payload| Addr)))
                   ((packet_list_node (|packet_list_node::packet| packet) (|packet_list_node::next| Addr)))))
(declare-datatypes ((BatchAllocResHeap 0) (AllocResHeap 0) (Heap 0))
                   (((BatchAllocResHeap   (newBatchHeap Heap) (newAddrRange AddrRange)))
                   ((AllocResHeap   (newHeap Heap) (newAddr Addr)))
                    ((HeapCtor (HeapSize Int)
                               (HeapContents (Array Addr HeapObject))))))
(define-fun nullAddr  () Addr 0)
(define-fun valid     ((h Heap) (p Addr)) Bool
  (and (>= (HeapSize h) p) (> p 0)))
(define-fun emptyHeap () Heap (
  HeapCtor 0 (( as const (Array Addr HeapObject)) defObj)))
(define-fun read ((h Heap) (p Addr)) HeapObject
  (ite (valid h p)
       (select (HeapContents h) p)
       defObj))
(define-fun write ((h Heap) (p Addr) (o HeapObject)) Heap
  (ite (valid h p)
       (HeapCtor (HeapSize h) (store (HeapContents h) p o))
       h))
(define-fun alloc   ((h Heap) (o HeapObject)) AllocResHeap
  (AllocResHeap (HeapCtor (+ 1 (HeapSize h))
                    (store (HeapContents h) (+ 1 (HeapSize h)) o))
          (+ 1 (HeapSize h))))

;===============================================================================
(declare-fun inv_main597_87 (Heap Addr Addr Addr Addr) Bool)
(declare-fun inv_main598_13 (Heap Addr Addr Addr Addr) Bool)
(declare-fun inv_main604_87 (Heap Addr Addr Addr Addr) Bool)
(declare-fun inv_main605_13 (Heap Addr Addr Addr Addr) Bool)
(declare-fun inv_main611_5 (Heap) Bool)
(declare-fun inv_main612_5 (Heap Addr Addr) Bool)
(assert (forall ((var0 Heap)) (or (not (= var0 emptyHeap)) (inv_main611_5 var0))))
(assert (forall ((var0 packet) (var1 Addr) (var2 Addr) (var3 Addr) (var4 Addr) (var5 Addr) (var6 Addr) (var7 Addr) (var8 Addr) (var9 Addr) (var10 Heap) (var11 Heap) (var12 Addr) (var13 Addr) (var14 Addr) (var15 Addr) (var16 Heap)) (or (not (and (inv_main598_13 var16 var15 var14 var13 var12) (and (and (and (and (and (and (= var11 var10) (= var9 var8)) (= var7 var6)) (= var5 var4)) (= var3 var2)) (= var1 (|packet_list_node::next| (getpacket_list_node (read var10 var2))))) (and (and (and (and (and (= var10 var16) (= var8 var15)) (= var6 var14)) (= var4 var13)) (= var2 var12)) (= var0 (|packet_list_node::packet| (getpacket_list_node (read var16 var12)))))))) (inv_main597_87 var11 var9 var7 var5 var1))))
(assert (forall ((var0 Int) (var1 packet) (var2 Addr) (var3 Addr) (var4 Addr) (var5 Addr) (var6 Heap) (var7 Addr) (var8 Addr) (var9 Addr) (var10 Addr) (var11 Addr) (var12 Addr) (var13 Addr) (var14 Addr) (var15 Addr) (var16 Heap) (var17 Heap) (var18 Addr) (var19 Addr) (var20 Addr) (var21 Addr) (var22 Heap)) (or (not (and (inv_main597_87 var22 var21 var20 var19 var18) (and (and (and (and (and (and (and (= var17 var16) (= var15 var14)) (= var13 var12)) (= var11 var10)) (= var9 var8)) (= var7 (|packet_list_node::next| (getpacket_list_node (read var16 var8))))) (and (and (and (and (and (= var16 var6) (= var14 var5)) (= var12 var4)) (= var10 var3)) (= var8 var2)) (= var1 (|packet_list_node::packet| (getpacket_list_node (read var6 var2)))))) (and (and (= var0 1) (and (and (and (and (and (= var6 var22) (= var5 var21)) (= var4 var20)) (= var3 var19)) (= var2 var18)) (= var0 (|packet::prio| (|packet_list_node::packet| (getpacket_list_node (read var22 var18))))))) (not (= var18 nullAddr)))))) (inv_main597_87 var17 var15 var13 var11 var7))))
(assert (forall ((var0 Int) (var1 Addr) (var2 Addr) (var3 Addr) (var4 Addr) (var5 Heap) (var6 Addr) (var7 Addr) (var8 Addr) (var9 Addr) (var10 Heap) (var11 Int) (var12 Int) (var13 packet) (var14 Addr) (var15 Addr) (var16 Addr) (var17 Addr) (var18 Heap) (var19 Addr) (var20 Addr) (var21 Addr) (var22 Addr) (var23 Addr) (var24 Addr) (var25 Addr) (var26 Addr) (var27 Addr) (var28 Heap) (var29 Heap) (var30 Addr) (var31 Addr) (var32 Addr) (var33 Addr) (var34 Heap)) (or (not (and (inv_main597_87 var34 var33 var32 var31 var30) (and (and (and (and (and (and (and (= var29 var28) (= var27 var26)) (= var25 var24)) (= var23 var22)) (= var21 var20)) (= var19 (|packet_list_node::next| (getpacket_list_node (read var28 var20))))) (and (and (and (and (and (= var28 var18) (= var26 var17)) (= var24 var16)) (= var22 var15)) (= var20 var14)) (= var13 (|packet_list_node::packet| (getpacket_list_node (read var18 var14)))))) (and (and (and (not (= var12 0)) (and (and (not (= var11 1)) (and (and (and (and (and (= var10 var34) (= var9 var33)) (= var8 var32)) (= var7 var31)) (= var6 var30)) (= var11 (|packet::prio| (|packet_list_node::packet| (getpacket_list_node (read var34 var30))))))) (and (and (and (and (and (= var5 var10) (= var4 var9)) (= var3 var8)) (= var2 var7)) (= var1 var6)) (= var0 (|packet::size| (|packet_list_node::packet| (getpacket_list_node (read var10 var6)))))))) (and (and (and (and (and (= var18 var5) (= var17 var4)) (= var16 var3)) (= var15 var2)) (= var14 var1)) (or (and (<= 0 (+ (+ 500 (* (- 1) var0)) (- 1))) (= var12 1)) (and (not (<= 0 (+ (+ 500 (* (- 1) var0)) (- 1)))) (= var12 0))))) (not (= var30 nullAddr)))))) (inv_main597_87 var29 var27 var25 var23 var19))))
(assert (forall ((var0 Int) (var1 Addr) (var2 Addr) (var3 Heap)) (or (not (and (inv_main612_5 var3 var2 var1) (= var0 0))) (inv_main597_87 var3 var2 var1 var2 var2))))
(assert (forall ((var0 Addr) (var1 Addr) (var2 Addr) (var3 Addr) (var4 Heap) (var5 Int) (var6 Addr) (var7 Addr) (var8 Addr) (var9 Addr) (var10 Heap)) (or (not (and (inv_main604_87 var10 var9 var8 var7 var6) (and (and (not (= var5 0)) (and (and (and (and (and (= var4 var10) (= var3 var9)) (= var2 var8)) (= var1 var7)) (= var0 var6)) (= var5 (|packet::prio| (|packet_list_node::packet| (getpacket_list_node (read var10 var6))))))) (not (= var6 nullAddr))))) (inv_main605_13 var4 var3 var2 var1 var0))))
(assert (forall ((var0 Addr) (var1 Addr) (var2 Addr) (var3 Addr) (var4 Heap) (var5 Int) (var6 Addr) (var7 Addr) (var8 Addr) (var9 Addr) (var10 Heap) (var11 Addr) (var12 Addr) (var13 Addr) (var14 Addr) (var15 Heap) (var16 Int) (var17 Int) (var18 Addr) (var19 Addr) (var20 Addr) (var21 Addr) (var22 Heap)) (or (not (and (inv_main604_87 var22 var21 var20 var19 var18) (and (and (and (= var17 0) (and (and (= var16 0) (and (and (and (and (and (= var15 var22) (= var14 var21)) (= var13 var20)) (= var12 var19)) (= var11 var18)) (= var16 (|packet::prio| (|packet_list_node::packet| (getpacket_list_node (read var22 var18))))))) (and (and (and (and (and (= var10 var15) (= var9 var14)) (= var8 var13)) (= var7 var12)) (= var6 var11)) (= var5 (|packet::size| (|packet_list_node::packet| (getpacket_list_node (read var15 var11)))))))) (and (and (and (and (and (= var4 var10) (= var3 var9)) (= var2 var8)) (= var1 var7)) (= var0 var6)) (or (and (<= 0 (+ var5 (- 500))) (= var17 1)) (and (not (<= 0 (+ var5 (- 500)))) (= var17 0))))) (not (= var18 nullAddr))))) (inv_main605_13 var4 var3 var2 var1 var0))))
(assert (forall ((var0 Addr) (var1 Addr) (var2 Addr) (var3 Addr) (var4 Heap) (var5 Int) (var6 Addr) (var7 Addr) (var8 Addr) (var9 Addr) (var10 Heap) (var11 Addr) (var12 Addr) (var13 Addr) (var14 Addr) (var15 Heap) (var16 Int) (var17 Int) (var18 Addr) (var19 Addr) (var20 Addr) (var21 Addr) (var22 Heap)) (or (not (and (inv_main597_87 var22 var21 var20 var19 var18) (and (and (and (= var17 0) (and (and (not (= var16 1)) (and (and (and (and (and (= var15 var22) (= var14 var21)) (= var13 var20)) (= var12 var19)) (= var11 var18)) (= var16 (|packet::prio| (|packet_list_node::packet| (getpacket_list_node (read var22 var18))))))) (and (and (and (and (and (= var10 var15) (= var9 var14)) (= var8 var13)) (= var7 var12)) (= var6 var11)) (= var5 (|packet::size| (|packet_list_node::packet| (getpacket_list_node (read var15 var11)))))))) (and (and (and (and (and (= var4 var10) (= var3 var9)) (= var2 var8)) (= var1 var7)) (= var0 var6)) (or (and (<= 0 (+ (+ 500 (* (- 1) var5)) (- 1))) (= var17 1)) (and (not (<= 0 (+ (+ 500 (* (- 1) var5)) (- 1)))) (= var17 0))))) (not (= var18 nullAddr))))) (inv_main598_13 var4 var3 var2 var1 var0))))
(assert (forall ((var0 Int) (var1 Addr) (var2 Addr) (var3 Addr) (var4 Heap) (var5 packet) (var6 Addr) (var7 Addr) (var8 Heap) (var9 packet) (var10 packet) (var11 Addr) (var12 Addr) (var13 Heap) (var14 Int) (var15 Int) (var16 packet) (var17 Addr) (var18 Addr) (var19 Heap)) (or (not (and (inv_main612_5 var19 var18 var17) (and (and (not (<= 0 (+ (|packet::size| var16) (- 1)))) (and (and (and (not (= var15 0)) (and (<= 0 var14) (and (and (and (= var13 var19) (= var12 var18)) (= var11 var17)) (= var10 (packet var14 (|packet::prio| var9) (|packet::payload| var9)))))) (and (and (and (= var8 var13) (= var7 var12)) (= var6 var11)) (= var5 (packet (|packet::size| var10) 0 (|packet::payload| var10))))) (and (and (and (= var4 var8) (= var3 var7)) (= var2 var6)) (= var16 (packet (|packet::size| var5) (|packet::prio| var5) var1))))) (not (= var0 0))))) (inv_main612_5 var4 var3 var2))))
(assert (forall ((var0 Int) (var1 Addr) (var2 Addr) (var3 Addr) (var4 Heap) (var5 packet) (var6 Addr) (var7 Addr) (var8 Heap) (var9 packet) (var10 packet) (var11 Addr) (var12 Addr) (var13 Heap) (var14 Int) (var15 Int) (var16 packet) (var17 Addr) (var18 Addr) (var19 Heap)) (or (not (and (inv_main612_5 var19 var18 var17) (and (and (not (<= 0 (+ (|packet::size| var16) (- 1)))) (and (and (and (= var15 0) (and (<= 0 var14) (and (and (and (= var13 var19) (= var12 var18)) (= var11 var17)) (= var10 (packet var14 (|packet::prio| var9) (|packet::payload| var9)))))) (and (and (and (= var8 var13) (= var7 var12)) (= var6 var11)) (= var5 (packet (|packet::size| var10) 1 (|packet::payload| var10))))) (and (and (and (= var4 var8) (= var3 var7)) (= var2 var6)) (= var16 (packet (|packet::size| var5) (|packet::prio| var5) var1))))) (not (= var0 0))))) (inv_main612_5 var4 var3 var2))))
(assert (forall ((var0 Int) (var1 Addr) (var2 packet) (var3 Addr) (var4 Addr) (var5 Heap) (var6 packet) (var7 packet) (var8 Addr) (var9 Addr) (var10 Heap) (var11 Int) (var12 Int) (var13 Addr) (var14 Int) (var15 packet) (var16 packet) (var17 Addr) (var18 Addr) (var19 Heap) (var20 Addr) (var21 Int) (var22 packet) (var23 packet) (var24 Addr) (var25 Addr) (var26 Heap) (var27 Addr) (var28 Int) (var29 packet) (var30 packet) (var31 packet) (var32 Addr) (var33 Addr) (var34 Addr) (var35 Addr) (var36 packet_list_node) (var37 Heap) (var38 Heap) (var39 Addr) (var40 Addr) (var41 Heap)) (or (not (and (inv_main612_5 var41 var40 var39) (and (and (and (and (and (and (and (and (and (and (= var38 (newHeap (alloc var37 (O_packet_list_node var36)))) (= var35 var34)) (= var33 var32)) (= var31 var30)) (= var29 var30)) (= var28 1)) (= var27 (newAddr (alloc var37 (O_packet_list_node var36))))) (and (and (and (and (and (and (= var26 (write var38 var27 (O_packet_list_node (packet_list_node var29 (|packet_list_node::next| (getpacket_list_node (read var38 var27))))))) (= var25 var35)) (= var24 var33)) (= var23 var31)) (= var22 var29)) (= var21 var28)) (= var20 var27))) (and (and (and (and (and (and (= var19 (write var26 var20 (O_packet_list_node (packet_list_node (|packet_list_node::packet| (getpacket_list_node (read var26 var20))) var25)))) (= var18 var25)) (= var17 var24)) (= var16 var23)) (= var15 var22)) (= var14 var21)) (= var13 var20))) (and (= (|packet::prio| var30) 1) (and (<= 0 (+ (|packet::size| var30) (- 1))) (and (and (and (not (= var12 0)) (and (<= 0 var11) (and (and (and (= var10 var41) (= var9 var40)) (= var8 var39)) (= var7 (packet var11 (|packet::prio| var6) (|packet::payload| var6)))))) (and (and (and (= var5 var10) (= var4 var9)) (= var3 var8)) (= var2 (packet (|packet::size| var7) 0 (|packet::payload| var7))))) (and (and (and (= var37 var5) (= var34 var4)) (= var32 var3)) (= var30 (packet (|packet::size| var2) (|packet::prio| var2) var1))))))) (not (= var0 0))))) (inv_main612_5 var19 var13 var17))))
(assert (forall ((var0 Int) (var1 Addr) (var2 packet) (var3 Addr) (var4 Addr) (var5 Heap) (var6 packet) (var7 packet) (var8 Addr) (var9 Addr) (var10 Heap) (var11 Int) (var12 Int) (var13 Addr) (var14 Int) (var15 packet) (var16 packet) (var17 Addr) (var18 Addr) (var19 Heap) (var20 Addr) (var21 Int) (var22 packet) (var23 packet) (var24 Addr) (var25 Addr) (var26 Heap) (var27 Addr) (var28 Int) (var29 packet) (var30 packet) (var31 packet) (var32 Addr) (var33 Addr) (var34 Addr) (var35 Addr) (var36 packet_list_node) (var37 Heap) (var38 Heap) (var39 Addr) (var40 Addr) (var41 Heap)) (or (not (and (inv_main612_5 var41 var40 var39) (and (and (and (and (and (and (and (and (and (and (= var38 (newHeap (alloc var37 (O_packet_list_node var36)))) (= var35 var34)) (= var33 var32)) (= var31 var30)) (= var29 var30)) (= var28 1)) (= var27 (newAddr (alloc var37 (O_packet_list_node var36))))) (and (and (and (and (and (and (= var26 (write var38 var27 (O_packet_list_node (packet_list_node var29 (|packet_list_node::next| (getpacket_list_node (read var38 var27))))))) (= var25 var35)) (= var24 var33)) (= var23 var31)) (= var22 var29)) (= var21 var28)) (= var20 var27))) (and (and (and (and (and (and (= var19 (write var26 var20 (O_packet_list_node (packet_list_node (|packet_list_node::packet| (getpacket_list_node (read var26 var20))) var25)))) (= var18 var25)) (= var17 var24)) (= var16 var23)) (= var15 var22)) (= var14 var21)) (= var13 var20))) (and (= (|packet::prio| var30) 1) (and (<= 0 (+ (|packet::size| var30) (- 1))) (and (and (and (= var12 0) (and (<= 0 var11) (and (and (and (= var10 var41) (= var9 var40)) (= var8 var39)) (= var7 (packet var11 (|packet::prio| var6) (|packet::payload| var6)))))) (and (and (and (= var5 var10) (= var4 var9)) (= var3 var8)) (= var2 (packet (|packet::size| var7) 1 (|packet::payload| var7))))) (and (and (and (= var37 var5) (= var34 var4)) (= var32 var3)) (= var30 (packet (|packet::size| var2) (|packet::prio| var2) var1))))))) (not (= var0 0))))) (inv_main612_5 var19 var13 var17))))
(assert (forall ((var0 Int) (var1 Addr) (var2 packet) (var3 Addr) (var4 Addr) (var5 Heap) (var6 packet) (var7 packet) (var8 Addr) (var9 Addr) (var10 Heap) (var11 Int) (var12 Int) (var13 Addr) (var14 Int) (var15 packet) (var16 packet) (var17 Addr) (var18 Addr) (var19 Heap) (var20 Addr) (var21 Int) (var22 packet) (var23 packet) (var24 Addr) (var25 Addr) (var26 Heap) (var27 Addr) (var28 Int) (var29 packet) (var30 packet) (var31 packet) (var32 Addr) (var33 Addr) (var34 Addr) (var35 Addr) (var36 packet_list_node) (var37 Heap) (var38 Heap) (var39 Addr) (var40 Addr) (var41 Heap)) (or (not (and (inv_main612_5 var41 var40 var39) (and (and (and (and (and (and (and (and (and (and (= var38 (newHeap (alloc var37 (O_packet_list_node var36)))) (= var35 var34)) (= var33 var32)) (= var31 var30)) (= var29 var30)) (= var28 1)) (= var27 (newAddr (alloc var37 (O_packet_list_node var36))))) (and (and (and (and (and (and (= var26 (write var38 var27 (O_packet_list_node (packet_list_node var29 (|packet_list_node::next| (getpacket_list_node (read var38 var27))))))) (= var25 var35)) (= var24 var33)) (= var23 var31)) (= var22 var29)) (= var21 var28)) (= var20 var27))) (and (and (and (and (and (and (= var19 (write var26 var20 (O_packet_list_node (packet_list_node (|packet_list_node::packet| (getpacket_list_node (read var26 var20))) var25)))) (= var18 var25)) (= var17 var24)) (= var16 var23)) (= var15 var22)) (= var14 var21)) (= var13 var20))) (and (<= 0 (+ (+ 500 (* (- 1) (|packet::size| var30))) (- 1))) (and (not (= (|packet::prio| var30) 1)) (and (<= 0 (+ (|packet::size| var30) (- 1))) (and (and (and (not (= var12 0)) (and (<= 0 var11) (and (and (and (= var10 var41) (= var9 var40)) (= var8 var39)) (= var7 (packet var11 (|packet::prio| var6) (|packet::payload| var6)))))) (and (and (and (= var5 var10) (= var4 var9)) (= var3 var8)) (= var2 (packet (|packet::size| var7) 0 (|packet::payload| var7))))) (and (and (and (= var37 var5) (= var34 var4)) (= var32 var3)) (= var30 (packet (|packet::size| var2) (|packet::prio| var2) var1)))))))) (not (= var0 0))))) (inv_main612_5 var19 var13 var17))))
(assert (forall ((var0 Int) (var1 Addr) (var2 packet) (var3 Addr) (var4 Addr) (var5 Heap) (var6 packet) (var7 packet) (var8 Addr) (var9 Addr) (var10 Heap) (var11 Int) (var12 Int) (var13 Addr) (var14 Int) (var15 packet) (var16 packet) (var17 Addr) (var18 Addr) (var19 Heap) (var20 Addr) (var21 Int) (var22 packet) (var23 packet) (var24 Addr) (var25 Addr) (var26 Heap) (var27 Addr) (var28 Int) (var29 packet) (var30 packet) (var31 packet) (var32 Addr) (var33 Addr) (var34 Addr) (var35 Addr) (var36 packet_list_node) (var37 Heap) (var38 Heap) (var39 Addr) (var40 Addr) (var41 Heap)) (or (not (and (inv_main612_5 var41 var40 var39) (and (and (and (and (and (and (and (and (and (and (= var38 (newHeap (alloc var37 (O_packet_list_node var36)))) (= var35 var34)) (= var33 var32)) (= var31 var30)) (= var29 var30)) (= var28 1)) (= var27 (newAddr (alloc var37 (O_packet_list_node var36))))) (and (and (and (and (and (and (= var26 (write var38 var27 (O_packet_list_node (packet_list_node var29 (|packet_list_node::next| (getpacket_list_node (read var38 var27))))))) (= var25 var35)) (= var24 var33)) (= var23 var31)) (= var22 var29)) (= var21 var28)) (= var20 var27))) (and (and (and (and (and (and (= var19 (write var26 var20 (O_packet_list_node (packet_list_node (|packet_list_node::packet| (getpacket_list_node (read var26 var20))) var25)))) (= var18 var25)) (= var17 var24)) (= var16 var23)) (= var15 var22)) (= var14 var21)) (= var13 var20))) (and (<= 0 (+ (+ 500 (* (- 1) (|packet::size| var30))) (- 1))) (and (not (= (|packet::prio| var30) 1)) (and (<= 0 (+ (|packet::size| var30) (- 1))) (and (and (and (= var12 0) (and (<= 0 var11) (and (and (and (= var10 var41) (= var9 var40)) (= var8 var39)) (= var7 (packet var11 (|packet::prio| var6) (|packet::payload| var6)))))) (and (and (and (= var5 var10) (= var4 var9)) (= var3 var8)) (= var2 (packet (|packet::size| var7) 1 (|packet::payload| var7))))) (and (and (and (= var37 var5) (= var34 var4)) (= var32 var3)) (= var30 (packet (|packet::size| var2) (|packet::prio| var2) var1)))))))) (not (= var0 0))))) (inv_main612_5 var19 var13 var17))))
(assert (forall ((var0 Int) (var1 Addr) (var2 packet) (var3 Addr) (var4 Addr) (var5 Heap) (var6 packet) (var7 packet) (var8 Addr) (var9 Addr) (var10 Heap) (var11 Int) (var12 Int) (var13 Addr) (var14 Int) (var15 packet) (var16 packet) (var17 Addr) (var18 Addr) (var19 Heap) (var20 Addr) (var21 Int) (var22 packet) (var23 packet) (var24 Addr) (var25 Addr) (var26 Heap) (var27 Addr) (var28 Int) (var29 packet) (var30 packet) (var31 packet) (var32 Addr) (var33 Addr) (var34 Addr) (var35 Addr) (var36 packet_list_node) (var37 Heap) (var38 Heap) (var39 Addr) (var40 Addr) (var41 Heap)) (or (not (and (inv_main612_5 var41 var40 var39) (and (and (and (and (and (and (and (and (and (and (= var38 (newHeap (alloc var37 (O_packet_list_node var36)))) (= var35 var34)) (= var33 var32)) (= var31 var30)) (= var29 var30)) (= var28 2)) (= var27 (newAddr (alloc var37 (O_packet_list_node var36))))) (and (and (and (and (and (and (= var26 (write var38 var27 (O_packet_list_node (packet_list_node var29 (|packet_list_node::next| (getpacket_list_node (read var38 var27))))))) (= var25 var35)) (= var24 var33)) (= var23 var31)) (= var22 var29)) (= var21 var28)) (= var20 var27))) (and (and (and (and (and (and (= var19 (write var26 var20 (O_packet_list_node (packet_list_node (|packet_list_node::packet| (getpacket_list_node (read var26 var20))) var24)))) (= var18 var25)) (= var17 var24)) (= var16 var23)) (= var15 var22)) (= var14 var21)) (= var13 var20))) (and (not (<= 0 (+ (+ 500 (* (- 1) (|packet::size| var30))) (- 1)))) (and (not (= (|packet::prio| var30) 1)) (and (<= 0 (+ (|packet::size| var30) (- 1))) (and (and (and (not (= var12 0)) (and (<= 0 var11) (and (and (and (= var10 var41) (= var9 var40)) (= var8 var39)) (= var7 (packet var11 (|packet::prio| var6) (|packet::payload| var6)))))) (and (and (and (= var5 var10) (= var4 var9)) (= var3 var8)) (= var2 (packet (|packet::size| var7) 0 (|packet::payload| var7))))) (and (and (and (= var37 var5) (= var34 var4)) (= var32 var3)) (= var30 (packet (|packet::size| var2) (|packet::prio| var2) var1)))))))) (not (= var0 0))))) (inv_main612_5 var19 var18 var13))))
(assert (forall ((var0 Int) (var1 Addr) (var2 packet) (var3 Addr) (var4 Addr) (var5 Heap) (var6 packet) (var7 packet) (var8 Addr) (var9 Addr) (var10 Heap) (var11 Int) (var12 Int) (var13 Addr) (var14 Int) (var15 packet) (var16 packet) (var17 Addr) (var18 Addr) (var19 Heap) (var20 Addr) (var21 Int) (var22 packet) (var23 packet) (var24 Addr) (var25 Addr) (var26 Heap) (var27 Addr) (var28 Int) (var29 packet) (var30 packet) (var31 packet) (var32 Addr) (var33 Addr) (var34 Addr) (var35 Addr) (var36 packet_list_node) (var37 Heap) (var38 Heap) (var39 Addr) (var40 Addr) (var41 Heap)) (or (not (and (inv_main612_5 var41 var40 var39) (and (and (and (and (and (and (and (and (and (and (= var38 (newHeap (alloc var37 (O_packet_list_node var36)))) (= var35 var34)) (= var33 var32)) (= var31 var30)) (= var29 var30)) (= var28 2)) (= var27 (newAddr (alloc var37 (O_packet_list_node var36))))) (and (and (and (and (and (and (= var26 (write var38 var27 (O_packet_list_node (packet_list_node var29 (|packet_list_node::next| (getpacket_list_node (read var38 var27))))))) (= var25 var35)) (= var24 var33)) (= var23 var31)) (= var22 var29)) (= var21 var28)) (= var20 var27))) (and (and (and (and (and (and (= var19 (write var26 var20 (O_packet_list_node (packet_list_node (|packet_list_node::packet| (getpacket_list_node (read var26 var20))) var24)))) (= var18 var25)) (= var17 var24)) (= var16 var23)) (= var15 var22)) (= var14 var21)) (= var13 var20))) (and (not (<= 0 (+ (+ 500 (* (- 1) (|packet::size| var30))) (- 1)))) (and (not (= (|packet::prio| var30) 1)) (and (<= 0 (+ (|packet::size| var30) (- 1))) (and (and (and (= var12 0) (and (<= 0 var11) (and (and (and (= var10 var41) (= var9 var40)) (= var8 var39)) (= var7 (packet var11 (|packet::prio| var6) (|packet::payload| var6)))))) (and (and (and (= var5 var10) (= var4 var9)) (= var3 var8)) (= var2 (packet (|packet::size| var7) 1 (|packet::payload| var7))))) (and (and (and (= var37 var5) (= var34 var4)) (= var32 var3)) (= var30 (packet (|packet::size| var2) (|packet::prio| var2) var1)))))))) (not (= var0 0))))) (inv_main612_5 var19 var18 var13))))
(assert (forall ((var0 Addr) (var1 Addr) (var2 Heap) (var3 Heap)) (or (not (and (inv_main611_5 var3) (and (and (= var2 var3) (= var1 nullAddr)) (= var0 nullAddr)))) (inv_main612_5 var2 var1 var0))))
(assert (forall ((var0 packet) (var1 Addr) (var2 Addr) (var3 Addr) (var4 Addr) (var5 Addr) (var6 Addr) (var7 Addr) (var8 Addr) (var9 Addr) (var10 Heap) (var11 Heap) (var12 Addr) (var13 Addr) (var14 Addr) (var15 Addr) (var16 Heap)) (or (not (and (inv_main605_13 var16 var15 var14 var13 var12) (and (and (and (and (and (and (= var11 var10) (= var9 var8)) (= var7 var6)) (= var5 var4)) (= var3 var2)) (= var1 (|packet_list_node::next| (getpacket_list_node (read var10 var2))))) (and (and (and (and (and (= var10 var16) (= var8 var15)) (= var6 var14)) (= var4 var13)) (= var2 var12)) (= var0 (|packet_list_node::packet| (getpacket_list_node (read var16 var12)))))))) (inv_main604_87 var11 var9 var7 var5 var1))))
(assert (forall ((var0 Int) (var1 Addr) (var2 Addr) (var3 Addr) (var4 Addr) (var5 Heap) (var6 Addr) (var7 Addr) (var8 Addr) (var9 Addr) (var10 Heap) (var11 Int) (var12 Int) (var13 packet) (var14 Addr) (var15 Addr) (var16 Addr) (var17 Addr) (var18 Heap) (var19 Addr) (var20 Addr) (var21 Addr) (var22 Addr) (var23 Addr) (var24 Addr) (var25 Addr) (var26 Addr) (var27 Addr) (var28 Heap) (var29 Heap) (var30 Addr) (var31 Addr) (var32 Addr) (var33 Addr) (var34 Heap)) (or (not (and (inv_main604_87 var34 var33 var32 var31 var30) (and (and (and (and (and (and (and (= var29 var28) (= var27 var26)) (= var25 var24)) (= var23 var22)) (= var21 var20)) (= var19 (|packet_list_node::next| (getpacket_list_node (read var28 var20))))) (and (and (and (and (and (= var28 var18) (= var26 var17)) (= var24 var16)) (= var22 var15)) (= var20 var14)) (= var13 (|packet_list_node::packet| (getpacket_list_node (read var18 var14)))))) (and (and (and (not (= var12 0)) (and (and (= var11 0) (and (and (and (and (and (= var10 var34) (= var9 var33)) (= var8 var32)) (= var7 var31)) (= var6 var30)) (= var11 (|packet::prio| (|packet_list_node::packet| (getpacket_list_node (read var34 var30))))))) (and (and (and (and (and (= var5 var10) (= var4 var9)) (= var3 var8)) (= var2 var7)) (= var1 var6)) (= var0 (|packet::size| (|packet_list_node::packet| (getpacket_list_node (read var10 var6)))))))) (and (and (and (and (and (= var18 var5) (= var17 var4)) (= var16 var3)) (= var15 var2)) (= var14 var1)) (or (and (<= 0 (+ var0 (- 500))) (= var12 1)) (and (not (<= 0 (+ var0 (- 500)))) (= var12 0))))) (not (= var30 nullAddr)))))) (inv_main604_87 var29 var27 var25 var23 var19))))
(assert (forall ((var0 Addr) (var1 Addr) (var2 Addr) (var3 Addr) (var4 Heap)) (or (not (and (inv_main597_87 var4 var3 var2 var1 var0) (= var0 nullAddr))) (inv_main604_87 var4 var3 var2 var2 var2))))
(assert (forall ((var0 Addr) (var1 Addr) (var2 Addr) (var3 Addr) (var4 Heap)) (not (inv_main598_13 var4 var3 var2 var1 var0))))
(assert (forall ((var0 Addr) (var1 Addr) (var2 Addr) (var3 Addr) (var4 Heap)) (not (inv_main605_13 var4 var3 var2 var1 var0))))
(check-sat)
